peakDumbCharging = 29600; 
Machine = anon_enum(16); 
machineSpeed = [3700,3700,3700,3700,3700,3700,3700,3700,3700,3700,3700,3700,3700,3700,3700,3700]; 
machineLoad = [3700,3700,3700,3700,3700,3700,3700,3700,3700,3700,3700,3700,3700,3700,3700,3700]; 
Car = anon_enum(36); 
demandCar = [8160,7000,2280,4720,6960,4760,14960,40,8720,13640,11920,3280,23120,6880,31560,12680,12760,11280,1400,4760,20920,24920,5960,11760,5200,2880,1320,25240,18000,15320,4320,13720,14440,4680,7840,8600]; 
arrivalCar = [84,76,75,72,67,65,64,64,64,64,63,62,61,60,59,59,56,55,54,54,54,51,51,50,48,48,47,44,44,43,42,40,40,39,38,35]; 
departureCar = [90,80,77,74,72,69,71,65,70,71,71,64,70,62,75,63,61,60,56,57,63,62,53,55,52,50,49,55,50,50,45,48,48,42,42,39]; 
